
-37.5
-10.0
-9.5
-9.5
-9.5
-9.4
-9.4
-9.4
-9.4
-9.4
-9.4
-9.4
-9.4
-9.4
-9.4
-9.4
-9.3
-9.3
-9.3
-9.3
-9.3
-9.3
-9.3
-14.65
-10.05
-10.05
-9.8
-9.75
-9.65
-9.5
-9.5
-9.45
-9.45
-9.4
-9.4
-9.4
-9.4
-9.4
-9.4
-9.4
-9.35
-9.3
-9.3
-9.3
-9.3
-9.3
-9.3
-9.3
-9.3
-9.3
-9.3
-9.3
-9.3
-9.3
-9.3
-9.3
-9.3
-9.3
-9.3
-9.3
-9.3
-9.3